81
0 15 34 43 18 62 21 63 8 49 
27 32 44 55 45 46 16 30 59 64 
68 22 33 61 66 2 60 36 25 23 
58 67 79 38 72 78 52 47 65 57 
31 6 50 10 37 14 75 28 54 1 
74 13 26 48 51 9 35 71 41 77 
24 11 12 76 40 56 42 4 69 19 
29 39 70 17 7 3 20 80 5 53 
73 
